Traveling Salesman Problem/TSP_generados/Aleatorio1620390956_10.tsp
NAME: Aleatorio1620390956_10.tsp
COMMENT: Randomly generated scenario
TYPE: TSP
DIMENSION: 10
EDGE_WEIGHT_TYPE: ATT
NODE_COORD_SECTION
1 10.64 33.52
2 7.09 16.17
3 46.01 36.62
4 43.53 6.73
5 11.13 1.64
6 14.78 32.68
7 21.58 4.13
8 30.63 44.95
9 0.74 18.47
10 2.4 31.89
