Traveling Salesman Problem/TSP_generados/Aleatorio1620390956_10.opt.tour
NAME: Aleatorio1620390956_10.opt.tour
COMMENT: Optimal solution for Aleatorio1620390956_10 (148.35521062344074)
TYPE: TOUR
DIMENSION: 10
TOUR_SECTION
1 6 8 3 4 7 5 2 9 10
-1
EOF
